p cnf 223 749
c t mc
3 1 0
3 -2 0
-1 2 -3 0
5 -3 0
5 -4 0
3 4 -5 0
-9 -7 0
-9 8 0
7 -8 9 0
-11 -9 0
-11 -10 0
9 10 11 0
11 12 -13 0
-11 -12 -13 0
11 -12 13 0
-11 12 13 0
-14 15 -16 0
14 -15 -16 0
-14 -15 16 0
14 15 16 0
-17 16 0
-17 4 0
-16 -4 17 0
4 17 -18 0
-4 -17 -18 0
4 -17 18 0
-4 17 18 0
-13 -18 -19 0
13 18 -19 0
-13 18 19 0
13 -18 19 0
6 19 -20 0
-6 -19 -20 0
6 -19 20 0
-6 19 20 0
21 5 0
21 20 0
-5 -20 -21 0
23 3 0
23 -22 0
-3 22 -23 0
-24 -12 0
-24 -10 0
12 10 24 0
25 -24 0
25 -11 0
24 11 -25 0
25 18 -26 0
-25 -18 -26 0
25 -18 26 0
-25 18 26 0
23 26 -27 0
-23 -26 -27 0
23 -26 27 0
-23 26 27 0
-30 -29 0
-30 -10 0
29 10 30 0
-31 -28 0
-31 30 0
28 -30 31 0
-32 -33 -34 0
32 33 -34 0
-32 33 34 0
32 -33 34 0
-35 1 0
-35 -34 0
-1 34 35 0
-36 -2 0
-36 15 0
2 -15 36 0
-34 36 -37 0
34 -36 -37 0
-34 -36 37 0
34 36 37 0
-38 37 0
-38 34 0
-37 -34 38 0
-39 -38 0
-39 -24 0
38 24 39 0
40 35 0
40 39 0
-35 -39 -40 0
-4 14 -41 0
4 -14 -41 0
-4 -14 41 0
4 14 41 0
-42 7 0
-42 -36 0
-7 36 42 0
-43 -41 0
-43 -42 0
41 42 43 0
-44 -40 0
-44 43 0
40 -43 44 0
45 -18 0
45 -32 0
18 32 -45 0
-46 22 0
-46 -33 0
-22 33 46 0
-45 46 -47 0
45 -46 -47 0
-45 -46 47 0
45 46 47 0
47 17 -48 0
-47 -17 -48 0
47 -17 48 0
-47 17 48 0
-48 -49 -50 0
48 49 -50 0
-48 49 50 0
48 -49 50 0
9 16 -52 0
-9 -16 -52 0
9 -16 52 0
-9 16 52 0
-51 52 -53 0
51 -52 -53 0
-51 -52 53 0
51 52 53 0
14 10 -54 0
-14 -10 -54 0
14 -10 54 0
-14 10 54 0
-55 53 0
-55 54 0
-53 -54 55 0
-56 50 0
-56 55 0
-50 -55 56 0
57 -44 0
57 56 0
44 -56 -57 0
-31 -57 -58 0
31 57 -58 0
-31 57 58 0
31 -57 58 0
59 2 0
59 -30 0
-2 30 -59 0
60 -52 0
60 59 0
52 -59 -60 0
6 15 -62 0
-6 -15 -62 0
6 -15 62 0
-6 15 62 0
-63 -62 0
-63 51 0
62 -51 63 0
-61 63 -64 0
61 -63 -64 0
-61 -63 64 0
61 63 64 0
65 60 0
65 -64 0
-60 64 -65 0
-10 66 0
10 66 0
68 12 0
68 67 0
-12 -67 -68 0
68 48 -69 0
-68 -48 -69 0
68 -48 69 0
-68 48 69 0
66 -69 -70 0
-66 69 -70 0
66 69 70 0
-66 -69 70 0
-71 -59 0
-71 -70 0
59 70 71 0
-65 -71 -72 0
65 71 -72 0
-65 71 72 0
65 -71 72 0
-73 19 0
-73 8 0
-19 -8 73 0
-74 3 0
-74 -22 0
-3 22 74 0
-74 67 -75 0
74 -67 -75 0
-74 -67 75 0
74 67 75 0
-76 -73 0
-76 -75 0
73 75 76 0
77 73 0
77 -75 0
-73 75 -77 0
78 76 0
78 -77 0
-76 77 -78 0
72 -78 -79 0
-72 78 -79 0
72 78 79 0
-72 -78 79 0
-80 -6 0
-80 -30 0
6 30 80 0
-79 80 -81 0
79 -80 -81 0
-79 -80 81 0
79 80 81 0
82 6 0
82 -4 0
-6 4 -82 0
-83 -1 0
-83 82 0
1 -82 83 0
-84 -67 0
-84 -83 0
67 83 84 0
85 -46 0
85 84 0
46 -84 -85 0
86 75 0
86 -12 0
-75 12 -86 0
-87 -29 0
-87 -86 0
29 86 87 0
88 66 0
88 -59 0
-66 59 -88 0
-89 87 0
-89 -88 0
-87 88 89 0
90 -85 0
90 -89 0
85 89 -90 0
-92 91 0
-92 34 0
-91 -34 92 0
92 6 -93 0
-92 -6 -93 0
92 -6 93 0
-92 6 93 0
-94 14 0
-94 93 0
-14 -93 94 0
-61 1 -95 0
61 -1 -95 0
-61 -1 95 0
61 1 95 0
95 92 -96 0
-95 -92 -96 0
95 -92 96 0
-95 92 96 0
-94 -96 -97 0
94 96 -97 0
-94 96 97 0
94 -96 97 0
98 90 0
98 -97 0
-90 97 -98 0
-81 98 -99 0
81 -98 -99 0
-81 -98 99 0
81 98 99 0
-100 58 0
-100 -99 0
-58 99 100 0
-101 -15 0
-101 -33 0
15 33 101 0
101 102 -103 0
-101 -102 -103 0
101 -102 103 0
-101 102 103 0
-104 -55 0
-104 45 0
55 -45 104 0
-105 74 0
-105 -36 0
-74 36 105 0
104 -105 -106 0
-104 105 -106 0
104 105 106 0
-104 -105 106 0
-107 -103 0
-107 106 0
103 -106 107 0
108 68 0
108 63 0
-68 -63 -108 0
-109 -34 0
-109 59 0
34 -59 109 0
110 -108 0
110 -109 0
108 109 -110 0
-111 -4 0
-111 -29 0
4 29 111 0
-112 -110 0
-112 -111 0
110 111 112 0
61 13 -113 0
-61 -13 -113 0
61 -13 113 0
-61 13 113 0
-12 54 -114 0
12 -54 -114 0
-12 -54 114 0
12 54 114 0
115 113 0
115 114 0
-113 -114 -115 0
-112 115 -116 0
112 -115 -116 0
-112 -115 116 0
112 115 116 0
117 -33 0
117 -19 0
33 19 -117 0
118 -117 0
118 36 0
117 -36 -118 0
119 91 0
119 6 0
-91 -6 -119 0
-120 119 0
-120 -50 0
-119 50 120 0
-118 120 -121 0
118 -120 -121 0
-118 -120 121 0
118 120 121 0
-122 -8 0
-122 -48 0
8 48 122 0
-36 122 -123 0
36 -122 -123 0
-36 -122 123 0
36 122 123 0
124 121 0
124 123 0
-121 -123 -124 0
125 -116 0
125 124 0
116 -124 -125 0
126 -15 0
126 -75 0
15 75 -126 0
127 108 0
127 -126 0
-108 126 -127 0
-128 125 0
-128 127 0
-125 -127 128 0
129 107 0
129 128 0
-107 -128 -129 0
-130 100 0
-130 -129 0
-100 129 130 0
-131 -27 0
-131 -130 0
27 130 131 0
-132 25 0
-132 51 0
-25 -51 132 0
-131 132 -133 0
131 -132 -133 0
-131 -132 133 0
131 132 133 0
37 24 -134 0
-37 -24 -134 0
37 -24 134 0
-37 24 134 0
135 49 0
135 -66 0
-49 66 -135 0
134 -135 -136 0
-134 135 -136 0
134 135 136 0
-134 -135 136 0
50 -36 -137 0
-50 36 -137 0
50 36 137 0
-50 -36 137 0
138 24 0
138 52 0
-24 -52 -138 0
139 30 0
139 33 0
-30 -33 -139 0
-140 109 0
-140 -139 0
-109 139 140 0
-141 138 0
-141 140 0
-138 -140 141 0
142 -137 0
142 -141 0
137 141 -142 0
143 -10 0
143 15 0
10 -15 -143 0
143 117 -144 0
-143 -117 -144 0
143 -117 144 0
-143 117 144 0
-145 -142 0
-145 144 0
142 -144 145 0
54 -17 -146 0
-54 17 -146 0
54 17 146 0
-54 -17 146 0
147 109 0
147 13 0
-109 -13 -147 0
-148 -146 0
-148 -147 0
146 147 148 0
145 -148 -149 0
-145 148 -149 0
145 148 149 0
-145 -148 149 0
136 149 -150 0
-136 -149 -150 0
136 -149 150 0
-136 149 150 0
-151 133 0
-151 150 0
-133 -150 151 0
152 -21 0
152 -151 0
21 151 -152 0
153 139 0
153 61 0
-139 -61 -153 0
154 95 0
154 -143 0
-95 143 -154 0
155 -153 0
155 154 0
153 -154 -155 0
9 83 -156 0
-9 -83 -156 0
9 -83 156 0
-9 83 156 0
156 93 -157 0
-156 -93 -157 0
156 -93 157 0
-156 93 157 0
-158 -74 0
-158 17 0
74 -17 158 0
-159 10 0
-159 158 0
-10 -158 159 0
-160 -29 0
-160 16 0
29 -16 160 0
160 135 -161 0
-160 -135 -161 0
160 -135 161 0
-160 135 161 0
-161 -86 -162 0
161 86 -162 0
-161 86 162 0
161 -86 162 0
-163 162 0
-163 109 0
-162 -109 163 0
164 -159 0
164 163 0
159 -163 -164 0
-165 -119 0
-165 101 0
119 -101 165 0
166 -164 0
166 165 0
164 -165 -166 0
167 -157 0
167 166 0
157 -166 -167 0
168 -155 0
168 -167 0
155 167 -168 0
-169 -50 0
-169 -75 0
50 75 169 0
-71 169 -170 0
71 -169 -170 0
-71 -169 170 0
71 169 170 0
171 101 0
171 -73 0
-101 73 -171 0
-172 -16 0
-172 37 0
16 -37 172 0
173 171 0
173 172 0
-171 -172 -173 0
174 170 0
174 173 0
-170 -173 -174 0
175 -50 0
175 -64 0
50 64 -175 0
176 -14 0
176 -175 0
14 175 -176 0
177 -29 0
177 91 0
29 -91 -177 0
-178 177 0
-178 3 0
-177 -3 178 0
179 2 0
179 -178 0
-2 178 -179 0
-176 -179 -180 0
176 179 -180 0
-176 179 180 0
176 -179 180 0
-13 52 -181 0
13 -52 -181 0
-13 -52 181 0
13 52 181 0
-182 -180 0
-182 181 0
180 -181 182 0
-183 174 0
-183 182 0
-174 -182 183 0
19 67 -184 0
-19 -67 -184 0
19 -67 184 0
-19 67 184 0
185 -54 0
185 1 0
54 -1 -185 0
-184 185 -186 0
184 -185 -186 0
-184 -185 186 0
184 185 186 0
-186 14 -187 0
186 -14 -187 0
-186 -14 187 0
186 14 187 0
65 -175 -188 0
-65 175 -188 0
65 175 188 0
-65 -175 188 0
83 188 -189 0
-83 -188 -189 0
83 -188 189 0
-83 188 189 0
-190 32 0
-190 15 0
-32 -15 190 0
61 190 -191 0
-61 -190 -191 0
61 -190 191 0
-61 190 191 0
192 82 0
192 191 0
-82 -191 -192 0
-193 -67 0
-193 70 0
67 -70 193 0
194 192 0
194 -193 0
-192 193 -194 0
-195 -189 0
-195 -194 0
189 194 195 0
196 66 0
196 75 0
-66 -75 -196 0
197 196 0
197 -2 0
-196 2 -197 0
198 195 0
198 197 0
-195 -197 -198 0
187 -198 -199 0
-187 198 -199 0
187 198 199 0
-187 -198 199 0
-200 183 0
-200 199 0
-183 -199 200 0
168 -200 -201 0
-168 200 -201 0
168 200 201 0
-168 -200 201 0
-202 122 0
-202 -95 0
-122 95 202 0
-12 33 -203 0
12 -33 -203 0
-12 -33 203 0
12 33 203 0
202 -203 -204 0
-202 203 -204 0
202 203 204 0
-202 -203 204 0
185 42 -205 0
-185 -42 -205 0
185 -42 205 0
-185 42 205 0
206 92 0
206 -205 0
-92 205 -206 0
207 13 0
207 206 0
-13 -206 -207 0
-208 -204 0
-208 207 0
204 -207 208 0
7 -51 -209 0
-7 51 -209 0
7 51 209 0
-7 -51 209 0
139 209 -210 0
-139 -209 -210 0
139 -209 210 0
-139 209 210 0
-211 210 0
-211 -86 0
-210 86 211 0
-51 211 -212 0
51 -211 -212 0
-51 -211 212 0
51 211 212 0
-213 -49 0
-213 -12 0
49 12 213 0
-212 -213 -214 0
212 213 -214 0
-212 213 214 0
212 -213 214 0
-208 -214 -215 0
208 214 -215 0
-208 214 215 0
208 -214 215 0
216 134 0
216 -17 0
-134 17 -216 0
217 -216 0
217 -16 0
216 16 -217 0
218 -215 0
218 217 0
215 -217 -218 0
219 -59 0
219 135 0
59 -135 -219 0
-220 -24 0
-220 -219 0
24 219 220 0
218 -220 -221 0
-218 220 -221 0
218 220 221 0
-218 -220 221 0
-222 -201 0
-222 -221 0
201 221 222 0
-223 -152 0
-223 -222 0
152 222 223 0
-189 7 65 123 -32 40 -206 -213 129 112 0
-184 27 221 -125 186 207 -77 -58 -126 0
42 -165 0
181 180 168 31 -214 61 199 -87 0
115 -119 87 163 -64 -138 0
-154 167 27 54 159 124 0
47 134 130 -145 0
-75 214 0
73 -193 169 -166 -57 -170 -211 -74 0
34 -131 180 -121 147 64 59 -105 -215 2 0
-148 -81 -142 12 164 -32 -141 124 0
-105 2 134 215 65 -221 0
-138 -7 168 -27 -71 -98 -59 20 171 0
-107 -9 0
-57 212 0
35 -120 54 86 0
155 17 -138 130 191 189 33 0
104 103 0
-215 -14 -161 -186 -82 189 179 -71 0
140 -135 16 0
-8 218 0
-221 -67 209 -100 0
204 -64 -191 -75 -195 82 -185 91 165 -188 0
-14 -16 -82 -208 91 -6 202 0
58 -167 -143 -15 196 0
-130 -156 0
-120 22 -158 105 -164 0
5 219 -142 174 -14 0
113 -104 27 184 -139 217 -69 148 0
-221 83 126 -1 59 -24 -4 -130 0
-43 100 182 219 -207 0
-84 98 158 174 -80 0
153 112 3 214 -195 158 220 -37 101 -122 0
-148 14 21 -149 196 97 0
-28 23 -181 -214 163 -204 -221 -29 -98 0
-29 -7 -55 -117 87 63 0
14 120 -115 0
143 -106 52 157 0
79 -89 -88 -6 142 17 44 0
-198 41 -148 118 182 -136 195 21 47 0
95 128 -58 142 184 -83 214 -101 45 -53 0
-132 178 15 182 159 148 23 0
87 -72 186 -199 -167 0
-170 -168 -157 199 -68 144 0
-57 -135 -34 0
-153 -23 126 -223 51 0
157 -206 -1 -74 -62 -191 -141 0
140 153 126 151 -90 -203 0
-102 180 -134 0
-164 -143 -20 -120 217 -13 116 166 88 0
114 -149 -200 63 -104 0
-24 171 -109 180 0
-98 -210 -110 -34 0
86 -103 -182 0
87 -217 10 128 -218 25 -81 -38 0
-154 -104 146 26 0
169 191 -58 196 -73 173 100 -96 86 -149 0
77 138 -42 -55 200 169 0
-214 64 58 -207 -45 186 -173 123 213 51 0
193 166 1 -160 122 0
156 165 -94 -28 -189 -36 -5 -74 -97 0
-166 -89 145 -203 -147 -40 -1 -28 171 0
61 -187 -212 141 0
197 -215 172 -95 223 -186 -213 96 0
93 -4 135 29 0
137 94 -48 26 17 53 -130 0
-89 -84 -149 -107 -46 -25 -42 -111 87 81 0
-184 -3 -57 -42 -205 -190 -10 46 -43 0
29 2 -201 93 145 154 -72 -162 0
118 -4 0
147 -219 217 141 -68 21 -56 -117 154 0
115 212 -144 76 -91 -134 -79 -8 0
149 -110 189 0
-116 -36 -181 35 172 0
223 0
